%%% static parameters %%%
timespan = 1;
Clients_N = [500];
Demand_W = [15];
Lt0 = [4];
Lt1 = [4];
SS_ = [0.85];
DS_D = [20];
K = [200];
MA = [500];
HC = [0.05];
%%% dynamic parameters %%%
lost_ratio_sales_ret_th = 0.00042694501611351224;
lost_ratio_sales_ret_w = 59;
lost_ratio_sales_dis_th = 0.0006437510519848254;
lost_ratio_sales_dis_w = 83;
lost_ratio_sales_fac_th = 0.0006061661331279517;
lost_ratio_sales_fac_w = 46;
stock_customer_MA_mean_relative_th = 0.8385205966598002;
stock_customer_MA_mean_relative_w = 44;
stock_distributor_MA_mean_relative_th = 0.565257565571848;
stock_distributor_MA_mean_relative_w = 20;
stock_retailer_MA_mean_relative_th = 0.2553032844399088;
stock_retailer_MA_mean_relative_w = 33;
stock_factory_MA_mean_relative_th = 0.8416304097132712;
stock_factory_MA_mean_relative_w = 23;
